problems/csplib-prob065/opd-models/compact/O0/minion/model_1-small_bibd_06_60_30-solution000001.solution
language Essence 1.3

letting lambda be 24
letting opd be
        {{25, 26, 27, 28, 29, 30, 31, 32, 33, 34, 35, 36, 37, 38, 39, 40, 41, 42, 43, 44, 45, 46, 47, 48, 49, 50, 51,
          52, 53, 54},
         {25, 26, 27, 28, 29, 30, 31, 32, 33, 34, 35, 36, 37, 38, 39, 40, 41, 42, 43, 44, 45, 46, 47, 48, 55, 56, 57,
          58, 59, 60},
         {25, 26, 27, 28, 29, 30, 31, 32, 33, 34, 35, 36, 37, 38, 39, 40, 41, 42, 49, 50, 51, 52, 53, 54, 55, 56, 57,
          58, 59, 60},
         {25, 26, 27, 28, 29, 30, 31, 32, 33, 34, 35, 36, 43, 44, 45, 46, 47, 48, 49, 50, 51, 52, 53, 54, 55, 56, 57,
          58, 59, 60},
         {25, 26, 27, 28, 29, 30, 37, 38, 39, 40, 41, 42, 43, 44, 45, 46, 47, 48, 49, 50, 51, 52, 53, 54, 55, 56, 57,
          58, 59, 60},
         {31, 32, 33, 34, 35, 36, 37, 38, 39, 40, 41, 42, 43, 44, 45, 46, 47, 48, 49, 50, 51, 52, 53, 54, 55, 56, 57,
          58, 59, 60}}
$ Visualisation for opd
$ 25 26 27 28 29 30 31 32 33 34 35 36 37 38 39 40 41 42 43 44 45 46 47 48 49 50 51 52 53 54
$ 25 26 27 28 29 30 31 32 33 34 35 36 37 38 39 40 41 42 43 44 45 46 47 48 55 56 57 58 59 60
$ 25 26 27 28 29 30 31 32 33 34 35 36 37 38 39 40 41 42 49 50 51 52 53 54 55 56 57 58 59 60
$ 25 26 27 28 29 30 31 32 33 34 35 36 43 44 45 46 47 48 49 50 51 52 53 54 55 56 57 58 59 60
$ 25 26 27 28 29 30 37 38 39 40 41 42 43 44 45 46 47 48 49 50 51 52 53 54 55 56 57 58 59 60
$ 31 32 33 34 35 36 37 38 39 40 41 42 43 44 45 46 47 48 49 50 51 52 53 54 55 56 57 58 59 60

